3 
4  31 49 
5  11 27 43 58 
6  13 28 43 58 
7  13 28 43 58 
8  13 28 43 58 
9  13 28 44 59 
10  14 29 44 59 
11  14 29 44 59 
12  14 29 44 59 
13  14 29 44 59 
14  14 29 44 58 
15  13 28 43 58 
16  13 28 43 58 
17  13 28 43 58 
18  13 28 44 59 
19  14 29 44 59 
20  14 29 44 59 
21  14 29 44 59 
22  18 33 48 
23 
0 
